N = 11;
H = 5;
T = 2;

avail = array3d(1..N, 1..H, 1..T, [1, 10, 10, 10, 4, 2, 4, 9, 6, 10, 6, 7, 0, 1, 2, 0, 1, 5, 9, 10, 10, 6, 0, 6, 1, 8, 3, 9, 6, 3, 2, 5, 5, 10, 6, 8, 1, 4, 9, 0, 9, 10, 7, 1, 9, 2, 10, 2, 9, 5, 5, 10, 7, 2, 9, 5, 8, 4, 4, 1, 7, 7, 0, 8, 6, 6, 3, 5, 7, 1, 5, 4, 7, 9, 2, 8, 2, 3, 0, 0, 7, 10, 7, 6, 3, 6, 9, 0, 3, 7, 0, 7, 10, 6, 0, 8, 1, 10, 0, 9, 5, 1, 9, 3, 2, 2, 0, 9, 3, 9]);

r = array2d(1..H, 1..T, [2, 4, 6, 3, 2, 3, 4, 3, 1, 5]);
